40
    82    92    27    46   100    42    10    26    38    48    26    87    17    12    46    98    81    92    16    29     7    97    64    54    96    90    94    49    79    88    88    96    16    60     8    78    95    27    91    80
    10     5     4     6    10     9     2     7     8     4     6     7     5     4     2     5     9     5     1     3    10     1     7     5     2     1     6     4     3     1     9     4     4     2     9     2     7     2     3     3
   173   171   697   157   534   174  1070   590   659     0     0   547  1098   126     0   979   737   722   130   401   934  1089    80     0   404   758   666     0   773   361   257    11    53   513     0     0  1032     0   433   297
